% demand
num_movements = 24;
loading_factor = [950, 1100, 1150, 1050, 1850, 1100, 1700, 1050, 900, 1350, 1350, 1500, 1300, 1650, 1200, 1250, 1300, 1900, 1400, 850, 1450, 1750, 1600, 1600];
pickup_time = [0, 0, 0, 0, 0, 1, 1, 1, 1, 1, 3, 3, 3, 3, 6, 6, 6, 8, 8, 8, 8, 8, 8, 9];
delivery_time = [7, 2, 1, 1, 1, 5, 3, 3, 2, 2, 8, 7, 4, 5, 7, 7, 7, 10, 10, 10, 10, 10, 10, 10];

% transporter definition
total_capacity = 11000;
num_decks = 4;
capacity = [3000, 3000, 1000, 4000];

% ways out of decks
num_ways_out = 2;
paths_out = array3d(decks, ways_out, decks, [
% ways out of deck d1
2, 4, 0, 0, 3, 4, 0, 0, 

% ways out of deck d2
4, 0, 0, 0, 0, 0, 0, 0,	

% ways out of deck d3
4, 0, 0, 0, 0, 0, 0, 0,	

% ways out of deck d4
0, 0, 0, 0,	0, 0, 0, 0,	

]);

